Gurobi 9.1.2 (linux64) logging started Fri Mar  4 10:00:39 2022

Gurobi Optimizer version 9.1.2 build v9.1.2rc0 (linux64)
Thread count: 12 physical cores, 24 logical processors, using up to 1 threads
Optimize a model with 12420 rows, 12420 columns and 126315 nonzeros
Model fingerprint: 0x48d551ea
Model has 120641 quadratic objective terms
Variable types: 12320 continuous, 100 integer (100 binary)
Coefficient statistics:
  Matrix range     [8e-04, 1e+00]
  Objective range  [7e-23, 4e-03]
  QObjective range [3e-06, 7e-05]
  Bounds range     [1e+00, 1e+00]
  RHS range        [2e+00, 2e+00]
Found heuristic solution: objective 23.5079377
Presolve removed 4121 rows and 4121 columns
Presolve time: 0.31s
Presolved: 8299 rows, 8299 columns, 107097 nonzeros
Presolved model has 78103 quadratic objective terms
Variable types: 8199 continuous, 100 integer (100 binary)
Warning: Markowitz tolerance tightened to 0.5
Warning: 1 variables dropped from basis

Root simplex log...

Iteration    Objective       Primal Inf.    Dual Inf.      Time
    5027    1.5067186e+01   5.076270e-04   0.000000e+00      5s
    5807    1.5067186e+01   1.533682e-05   0.000000e+00     11s
    7003    3.2401475e+01   0.000000e+00   2.572286e+06     15s
    8095    1.2090000e+01   0.000000e+00   9.272880e+02     20s
    8996    9.7498675e+00   0.000000e+00   1.313363e+03     26s
    9556    9.0039450e+00   0.000000e+00   9.166133e+02     30s
   10256    6.4432361e+00   0.000000e+00   1.712189e+03     36s
   10581    7.1820225e+00   0.000000e+00   0.000000e+00     38s

Root relaxation: objective 7.182022e+00, 10581 iterations, 37.64 seconds

    Nodes    |    Current Node    |     Objective Bounds      |     Work
 Expl Unexpl |  Obj  Depth IntInf | Incumbent    BestBd   Gap | It/Node Time

     0     0    7.18202    0  100   23.50794    7.18202  69.4%     -   38s
     0     0    7.19551    0  100   23.50794    7.19551  69.4%     -   39s
H    0     0                      12.1322390    7.19551  40.7%     -   41s
     0     0    7.19867    0  100   12.13224    7.19867  40.7%     -   42s
     0     0    7.20271    0  100   12.13224    7.20271  40.6%     -   43s
     0     0    7.20297    0  100   12.13224    7.20297  40.6%     -   45s
     0     0    7.22395    0  100   12.13224    7.22395  40.5%     -   46s
H    0     0                      12.1089301    7.22395  40.3%     -   48s
     0     0    7.23679    0  100   12.10893    7.23679  40.2%     -   49s
     0     0    7.25962    0  100   12.10893    7.25962  40.0%     -   51s
     0     0    7.31315    0  100   12.10893    7.31315  39.6%     -   52s
     0     0    7.32195    0  100   12.10893    7.32195  39.5%     -   54s
     0     0    7.34129    0  100   12.10893    7.34129  39.4%     -   56s
     0     0    7.34273    0  100   12.10893    7.34273  39.4%     -   57s
     0     0    7.35306    0  100   12.10893    7.35306  39.3%     -   58s
     0     0    7.37431    0  100   12.10893    7.37431  39.1%     -   60s
     0     0    7.38807    0  100   12.10893    7.38807  39.0%     -   62s
     0     0    7.40701    0  100   12.10893    7.40701  38.8%     -   64s
     0     0    7.41900    0  100   12.10893    7.41900  38.7%     -   67s
     0     0    7.41921    0  100   12.10893    7.41921  38.7%     -   69s
     0     0    7.42817    0  100   12.10893    7.42817  38.7%     -   71s
     0     0    7.44960    0  100   12.10893    7.44960  38.5%     -   73s
     0     0    7.46799    0  100   12.10893    7.46799  38.3%     -   75s
     0     0    7.48473    0  100   12.10893    7.48473  38.2%     -   76s
     0     0    7.49256    0  100   12.10893    7.49256  38.1%     -   78s
     0     0    7.51163    0  100   12.10893    7.51163  38.0%     -   80s
     0     0    7.51625    0  100   12.10893    7.51625  37.9%     -   82s
     0     0    7.53048    0  100   12.10893    7.53048  37.8%     -   83s
     0     0    7.53087    0  100   12.10893    7.53087  37.8%     -   86s
     0     0    7.55264    0  100   12.10893    7.55264  37.6%     -   87s
     0     0    7.56955    0  100   12.10893    7.56955  37.5%     -   89s
     0     0    7.58246    0  100   12.10893    7.58246  37.4%     -   91s
     0     0    7.60153    0  100   12.10893    7.60153  37.2%     -   92s
     0     0    7.60176    0  100   12.10893    7.60176  37.2%     -   94s
     0     0    7.61860    0  100   12.10893    7.61860  37.1%     -   96s
     0     0    7.61866    0  100   12.10893    7.61866  37.1%     -   98s
     0     0    7.63177    0  100   12.10893    7.63177  37.0%     -  101s
     0     0    7.63191    0  100   12.10893    7.63191  37.0%     -  104s
     0     0    7.64747    0  100   12.10893    7.64747  36.8%     -  105s
     0     0    7.64945    0  100   12.10893    7.64945  36.8%     -  108s
     0     0    7.66585    0  100   12.10893    7.66585  36.7%     -  111s
     0     0    7.66620    0  100   12.10893    7.66620  36.7%     -  113s
     0     0    7.68862    0  100   12.10893    7.68862  36.5%     -  115s
     0     0    7.69240    0  100   12.10893    7.69240  36.5%     -  117s
     0     0    7.70052    0  100   12.10893    7.70052  36.4%     -  120s
     0     0    7.70193    0  100   12.10893    7.70193  36.4%     -  122s
     0     0    7.72386    0  100   12.10893    7.72386  36.2%     -  125s
     0     0    7.72821    0  100   12.10893    7.72821  36.2%     -  127s
     0     0    7.73874    0  100   12.10893    7.73874  36.1%     -  130s
     0     0    7.75333    0  100   12.10893    7.75333  36.0%     -  133s
     0     0    7.75776    0  100   12.10893    7.75776  35.9%     -  135s
     0     0    7.76458    0  100   12.10893    7.76458  35.9%     -  138s
     0     0    7.78312    0  100   12.10893    7.78312  35.7%     -  140s
     0     0    7.79933    0  100   12.10893    7.79933  35.6%     -  143s
     0     0    7.81221    0  100   12.10893    7.81221  35.5%     -  146s
     0     0    7.81313    0  100   12.10893    7.81313  35.5%     -  149s
     0     0    7.82117    0  100   12.10893    7.82117  35.4%     -  151s
     0     0    7.82709    0  100   12.10893    7.82709  35.4%     -  153s
     0     0    7.84177    0  100   12.10893    7.84177  35.2%     -  156s
     0     0    7.84490    0  100   12.10893    7.84490  35.2%     -  158s
     0     0    7.87157    0  100   12.10893    7.87157  35.0%     -  160s
     0     0    7.87159    0  100   12.10893    7.87159  35.0%     -  162s
     0     0    7.88140    0  100   12.10893    7.88140  34.9%     -  164s
     0     0    7.90296    0  100   12.10893    7.90296  34.7%     -  166s
     0     0    7.91632    0  100   12.10893    7.91632  34.6%     -  169s
     0     0    7.91775    0  100   12.10893    7.91775  34.6%     -  172s
     0     0    7.93093    0  100   12.10893    7.93093  34.5%     -  175s
     0     0    7.93775    0  100   12.10893    7.93775  34.4%     -  177s
     0     0    7.94289    0  100   12.10893    7.94289  34.4%     -  179s
     0     0    7.94327    0  100   12.10893    7.94327  34.4%     -  182s
     0     0    7.95343    0  100   12.10893    7.95343  34.3%     -  184s
     0     0    7.95349    0  100   12.10893    7.95349  34.3%     -  185s
     0     0    7.96350    0  100   12.10893    7.96350  34.2%     -  187s
     0     0    7.96875    0  100   12.10893    7.96875  34.2%     -  190s
     0     0    7.99107    0  100   12.10893    7.99107  34.0%     -  193s
     0     0    7.99880    0  100   12.10893    7.99880  33.9%     -  196s
     0     0    7.99905    0  100   12.10893    7.99905  33.9%     -  199s
     0     0    8.00466    0  100   12.10893    8.00466  33.9%     -  202s
     0     0    8.00470    0  100   12.10893    8.00470  33.9%     -  204s
     0     0    8.00833    0  100   12.10893    8.00833  33.9%     -  206s
     0     0    8.01231    0  100   12.10893    8.01231  33.8%     -  210s
     0     0    8.01453    0  100   12.10893    8.01453  33.8%     -  211s
     0     0    8.02850    0  100   12.10893    8.02850  33.7%     -  215s
     0     0    8.02900    0  100   12.10893    8.02900  33.7%     -  217s
     0     0    8.03945    0  100   12.10893    8.03945  33.6%     -  220s
     0     0    8.03964    0  100   12.10893    8.03964  33.6%     -  222s
     0     0    8.05015    0  100   12.10893    8.05015  33.5%     -  224s
     0     0    8.05280    0  100   12.10893    8.05280  33.5%     -  227s
     0     0    8.06166    0  100   12.10893    8.06166  33.4%     -  229s
     0     0    8.06321    0  100   12.10893    8.06321  33.4%     -  232s
     0     0    8.06931    0  100   12.10893    8.06931  33.4%     -  234s
     0     0    8.08080    0  100   12.10893    8.08080  33.3%     -  237s
     0     0    8.08200    0  100   12.10893    8.08200  33.3%     -  240s
     0     0    8.08962    0  100   12.10893    8.08962  33.2%     -  242s
     0     0    8.09212    0  100   12.10893    8.09212  33.2%     -  244s
     0     0    8.09216    0  100   12.10893    8.09216  33.2%     -  246s
     0     0    8.09878    0  100   12.10893    8.09878  33.1%     -  248s
     0     0    8.10609    0  100   12.10893    8.10609  33.1%     -  251s
     0     0    8.10680    0  100   12.10893    8.10680  33.1%     -  254s
     0     0    8.10848    0  100   12.10893    8.10848  33.0%     -  257s
     0     0    8.11348    0  100   12.10893    8.11348  33.0%     -  259s
     0     0    8.11400    0  100   12.10893    8.11400  33.0%     -  262s
     0     0    8.12391    0  100   12.10893    8.12391  32.9%     -  264s
     0     0    8.12611    0  100   12.10893    8.12611  32.9%     -  267s
     0     0    8.12620    0  100   12.10893    8.12620  32.9%     -  270s
     0     0    8.13799    0  100   12.10893    8.13799  32.8%     -  272s
     0     0    8.14141    0  100   12.10893    8.14141  32.8%     -  274s
     0     0    8.14222    0  100   12.10893    8.14222  32.8%     -  277s
     0     0    8.15600    0  100   12.10893    8.15600  32.6%     -  280s
     0     0    8.15891    0  100   12.10893    8.15891  32.6%     -  282s
     0     0    8.16148    0  100   12.10893    8.16148  32.6%     -  285s
     0     0    8.16917    0  100   12.10893    8.16917  32.5%     -  288s
     0     0    8.18149    0  100   12.10893    8.18149  32.4%     -  291s
     0     0    8.19088    0  100   12.10893    8.19088  32.4%     -  294s
     0     0    8.19257    0  100   12.10893    8.19257  32.3%     -  296s
     0     0    8.20309    0  100   12.10893    8.20309  32.3%     -  300s
     0     0    8.20311    0  100   12.10893    8.20311  32.3%     -  302s
     0     0    8.20622    0  100   12.10893    8.20622  32.2%     -  304s
     0     0    8.21076    0  100   12.10893    8.21076  32.2%     -  308s
     0     0    8.21187    0  100   12.10893    8.21187  32.2%     -  311s
     0     0    8.22614    0  100   12.10893    8.22614  32.1%     -  314s
     0     0    8.22994    0  100   12.10893    8.22994  32.0%     -  316s
     0     0    8.23007    0  100   12.10893    8.23007  32.0%     -  319s
     0     0    8.23008    0  100   12.10893    8.23008  32.0%     -  320s
     0     0    8.24200    0  100   12.10893    8.24200  31.9%     -  322s
     0     0    8.24263    0  100   12.10893    8.24263  31.9%     -  325s
     0     0    8.24399    0  100   12.10893    8.24399  31.9%     -  327s
     0     0    8.24405    0  100   12.10893    8.24405  31.9%     -  331s
     0     0    8.25469    0  100   12.10893    8.25469  31.8%     -  333s
     0     0    8.25473    0  100   12.10893    8.25473  31.8%     -  336s
     0     0    8.26308    0  100   12.10893    8.26308  31.8%     -  338s
     0     0    8.28023    0  100   12.10893    8.28023  31.6%     -  341s
     0     0    8.28046    0  100   12.10893    8.28046  31.6%     -  343s
     0     0    8.28047    0  100   12.10893    8.28047  31.6%     -  345s
     0     0    8.29317    0  100   12.10893    8.29317  31.5%     -  347s
     0     0    8.29338    0  100   12.10893    8.29338  31.5%     -  350s
     0     0    8.29362    0  100   12.10893    8.29362  31.5%     -  352s
     0     0    8.30365    0  100   12.10893    8.30365  31.4%     -  354s
     0     0    8.30367    0  100   12.10893    8.30367  31.4%     -  356s
     0     0    8.30656    0  100   12.10893    8.30656  31.4%     -  359s
     0     0    8.30661    0  100   12.10893    8.30661  31.4%     -  362s
     0     0    8.31904    0  100   12.10893    8.31904  31.3%     -  365s
     0     0    8.32166    0  100   12.10893    8.32166  31.3%     -  368s
     0     0    8.32522    0  100   12.10893    8.32522  31.2%     -  370s
     0     0    8.33300    0  100   12.10893    8.33300  31.2%     -  372s
     0     0    8.33361    0  100   12.10893    8.33361  31.2%     -  375s
     0     0    8.33423    0  100   12.10893    8.33423  31.2%     -  378s
     0     0    8.34816    0  100   12.10893    8.34816  31.1%     -  382s
     0     0    8.35726    0  100   12.10893    8.35726  31.0%     -  385s
     0     0    8.35731    0  100   12.10893    8.35731  31.0%     -  388s
     0     0    8.36727    0  100   12.10893    8.36727  30.9%     -  390s
     0     0    8.36811    0  100   12.10893    8.36811  30.9%     -  393s
     0     0    8.37210    0  100   12.10893    8.37210  30.9%     -  396s
     0     0    8.37228    0  100   12.10893    8.37228  30.9%     -  398s
     0     0    8.37907    0  100   12.10893    8.37907  30.8%     -  402s
     0     0    8.38197    0  100   12.10893    8.38197  30.8%     -  404s
     0     0    8.39251    0  100   12.10893    8.39251  30.7%     -  407s
     0     0    8.40264    0  100   12.10893    8.40264  30.6%     -  411s
     0     0    8.40284    0  100   12.10893    8.40284  30.6%     -  413s
     0     0    8.40285    0  100   12.10893    8.40285  30.6%     -  415s
     0     0    8.40685    0  100   12.10893    8.40685  30.6%     -  418s
     0     0    8.40876    0  100   12.10893    8.40876  30.6%     -  421s
     0     0    8.40877    0  100   12.10893    8.40877  30.6%     -  424s
     0     0    8.41239    0  100   12.10893    8.41239  30.5%     -  426s
     0     0    8.41253    0  100   12.10893    8.41253  30.5%     -  429s
     0     0    8.41618    0  100   12.10893    8.41618  30.5%     -  431s
     0     0    8.41710    0  100   12.10893    8.41710  30.5%     -  435s
     0     0    8.41732    0  100   12.10893    8.41732  30.5%     -  437s
     0     0    8.42193    0  100   12.10893    8.42193  30.4%     -  440s
     0     0    8.42836    0  100   12.10893    8.42836  30.4%     -  442s
     0     0    8.42856    0  100   12.10893    8.42856  30.4%     -  446s
     0     0    8.42860    0  100   12.10893    8.42860  30.4%     -  449s
     0     0    8.43598    0  100   12.10893    8.43598  30.3%     -  451s
     0     0    8.44272    0  100   12.10893    8.44272  30.3%     -  455s
     0     0    8.44463    0  100   12.10893    8.44463  30.3%     -  458s
     0     0    8.44938    0  100   12.10893    8.44938  30.2%     -  460s
     0     0    8.44995    0  100   12.10893    8.44995  30.2%     -  464s
     0     0    8.45988    0  100   12.10893    8.45988  30.1%     -  467s
     0     0    8.45999    0  100   12.10893    8.45999  30.1%     -  470s
     0     0    8.47014    0  100   12.10893    8.47014  30.1%     -  473s
     0     0    8.47101    0  100   12.10893    8.47101  30.0%     -  476s
     0     0    8.48136    0  100   12.10893    8.48136  30.0%     -  479s
     0     0    8.48390    0  100   12.10893    8.48390  29.9%     -  482s
     0     0    8.48446    0  100   12.10893    8.48446  29.9%     -  484s
     0     0    8.49174    0  100   12.10893    8.49174  29.9%     -  486s
     0     0    8.49379    0  100   12.10893    8.49379  29.9%     -  489s
     0     0    8.50583    0  100   12.10893    8.50583  29.8%     -  491s
     0     0    8.51095    0  100   12.10893    8.51095  29.7%     -  494s
     0     0    8.52641    0  100   12.10893    8.52641  29.6%     -  496s
     0     0    8.52724    0  100   12.10893    8.52724  29.6%     -  499s
     0     0    8.52731    0  100   12.10893    8.52731  29.6%     -  501s
     0     0    8.53559    0  100   12.10893    8.53559  29.5%     -  503s
     0     0    8.53568    0  100   12.10893    8.53568  29.5%     -  506s
     0     0    8.54538    0  100   12.10893    8.54538  29.4%     -  509s
     0     0    8.54573    0  100   12.10893    8.54573  29.4%     -  512s
     0     0    8.55384    0  100   12.10893    8.55384  29.4%     -  514s
     0     0    8.55763    0  100   12.10893    8.55763  29.3%     -  517s
     0     0    8.57065    0  100   12.10893    8.57065  29.2%     -  521s
     0     0    8.57071    0  100   12.10893    8.57071  29.2%     -  523s
     0     0    8.57921    0  100   12.10893    8.57921  29.1%     -  527s
     0     0    8.58528    0  100   12.10893    8.58528  29.1%     -  532s
     0     0    8.58545    0  100   12.10893    8.58545  29.1%     -  536s
     0     0    8.59271    0  100   12.10893    8.59271  29.0%     -  538s
     0     0    8.59305    0  100   12.10893    8.59305  29.0%     -  542s
     0     0    8.59909    0  100   12.10893    8.59909  29.0%     -  544s
     0     2    9.59247    0   98   12.10893    9.59247  20.8%     -  657s
     7     5     cutoff    5        12.10893   11.56974  4.45%  29.6  660s

Cutting planes:
  Network: 33

Explored 13 nodes (14911 simplex iterations) in 663.20 seconds
Thread count was 1 (of 24 available processors)

Solution count 3: 12.1089 12.1322 23.5079 

Optimal solution found (tolerance 1.00e-04)
Best objective 1.210893009709e+01, best bound 1.210893009709e+01, gap 0.0000%
